4 
5  33 53 
6  11 26 39 54 
7  09 24 39 54 
8  09 24 39 54 
9  09 25 39 54 
10  09 24 39 53 
11  08 23 38 53 
12  08 23 38 53 
13  09 24 39 54 
14  09 24 39 54 
15  09 24 39 54 
16  09 24 39 54 
17  09 24 39 54 
18  09 24 39 55 
19  09 24 39 54 
20  09 24 39 54 
21  09 27 42 54 
22  09 24 39 58 
23  11 26 
0 
